objective value:                     2.87707291224498
x(0,2,0)                                            1 	(obj:0)
x(1,19,0)                                           1 	(obj:0)
x(2,4,0)                                            1 	(obj:0)
x(3,0,0)                                            1 	(obj:0)
x(4,1,0)                                            1 	(obj:0)
x(9,3,0)                                            1 	(obj:0)
x(19,9,0)                                           1 	(obj:0)
xc(0,3)                                             1 	(obj:0)
xc(1,11)                                            1 	(obj:0)
xc(4,14)                                            1 	(obj:0)
u(0,0)                              0.937818515726761 	(obj:0)
u(1,0)                               2.02948259689655 	(obj:0)
u(2,0)                               1.23814751554396 	(obj:0)
u(3,0)                              0.906706042157861 	(obj:0)
u(4,0)                               1.79195509460455 	(obj:0)
u(10,0)                              2.87707291224498 	(obj:0)
u(11,0)                              2.87707291224498 	(obj:0)
u(12,0)                              2.87707291224498 	(obj:0)
u(13,0)                              2.87707291224498 	(obj:0)
u(14,0)                              2.87707291224498 	(obj:0)
u(15,0)                              2.87707291224498 	(obj:0)
u(16,0)                              2.87707291224498 	(obj:0)
u(17,0)                              2.87707291224498 	(obj:0)
u(18,0)                              2.87707291224498 	(obj:0)
u(19,0)                              2.87707291224498 	(obj:0)
f(0,2,0)                                            1 	(obj:0)
f(0,2,3)                                            1 	(obj:0)
f(1,19,0)                                           1 	(obj:0)
f(1,19,1)                                           1 	(obj:0)
f(1,19,2)                                           1 	(obj:0)
f(1,19,3)                                           1 	(obj:0)
f(1,19,4)                                           1 	(obj:0)
f(2,4,0)                                            1 	(obj:0)
f(2,4,2)                                            1 	(obj:0)
f(2,4,3)                                            1 	(obj:0)
f(3,0,3)                                            1 	(obj:0)
f(4,1,0)                                            1 	(obj:0)
f(4,1,2)                                            1 	(obj:0)
f(4,1,3)                                            1 	(obj:0)
f(4,1,4)                                            1 	(obj:0)
f(19,9,0)                                           1 	(obj:0)
f(19,9,1)                                           1 	(obj:0)
f(19,9,2)                                           1 	(obj:0)
f(19,9,3)                                           1 	(obj:0)
f(19,9,4)                                           1 	(obj:0)
z_r(0,)                              2.87707291224498 	(obj:0)
z                                    2.87707291224498 	(obj:1)
